NAME : in_house_7_12
TYPE : TSP
DIMENSION : 7
EDGE_WEIGHT_TYPE : EXPLICIT
EDGE_WEIGHT_FORMAT : UPPER_ROW
COMMENT : INVERSION_SHIFT=7
EDGE_WEIGHT_SECTION
32
30
45
21
41
7
36
21
2
33
18
25
30
14
24
9
41
35
6
39
31
